NAME: X336-FSMF
COMMENT: Generated by Uchoa, Pecin, Pessoa, Poggi, Subramanian, and Vidal (2013). Modified by Sadykov, Pessoa and Uchoa (2017). Converted to PyVRP's VRPLIB dialect.
TYPE: HFVRP
DIMENSION: 336
VEHICLES: 1005
EDGE_WEIGHT_TYPE: EUC_2D
NODE_COORD_SECTION
1	0	0
2	365	689
3	146	180
4	792	5
5	658	510
6	461	270
7	299	531
8	812	228
9	643	90
10	615	630
11	258	42
12	616	299
13	475	957
14	425	473
15	406	64
16	656	369
17	202	467
18	318	21
19	579	587
20	458	354
21	575	871
22	47	512
23	568	742
24	128	436
25	546	806
26	197	696
27	615	300
28	852	563
29	772	803
30	678	342
31	916	176
32	390	949
33	113	782
34	226	736
35	119	923
36	584	572
37	134	554
38	912	173
39	827	233
40	851	677
41	598	322
42	627	472
43	94	442
44	688	274
45	977	176
46	597	461
47	931	23
48	170	640
49	941	601
50	873	487
51	797	95
52	451	816
53	866	970
54	833	912
55	106	913
56	260	107
57	332	45
58	685	613
59	728	372
60	407	590
61	619	484
62	966	483
63	482	512
64	278	599
65	213	330
66	37	932
67	643	10
68	341	241
69	302	521
70	593	382
71	438	686
72	637	885
73	277	382
74	152	776
75	546	999
76	288	665
77	232	131
78	563	66
79	602	547
80	996	983
81	464	377
82	502	727
83	691	574
84	535	4
85	975	616
86	974	242
87	853	459
88	263	163
89	967	740
90	810	617
91	580	226
92	615	656
93	346	526
94	172	867
95	319	35
96	602	946
97	224	146
98	48	527
99	970	693
100	314	262
101	413	661
102	756	147
103	381	139
104	421	100
105	930	522
106	440	792
107	862	962
108	668	720
109	493	72
110	573	541
111	668	884
112	380	646
113	24	44
114	457	991
115	511	272
116	960	171
117	150	61
118	721	754
119	56	633
120	389	853
121	700	137
122	823	958
123	422	111
124	727	12
125	203	178
126	548	744
127	677	999
128	610	239
129	396	478
130	509	773
131	347	219
132	754	887
133	717	223
134	650	718
135	909	845
136	451	575
137	806	992
138	740	770
139	291	583
140	74	690
141	8	248
142	877	132
143	379	284
144	574	881
145	871	854
146	987	529
147	509	440
148	976	565
149	644	554
150	325	696
151	969	681
152	888	425
153	782	490
154	974	885
155	502	280
156	992	909
157	440	691
158	342	364
159	806	649
160	552	728
161	980	576
162	671	918
163	26	841
164	909	363
165	463	459
166	526	344
167	268	49
168	979	559
169	156	39
170	303	960
171	85	110
172	760	825
173	28	910
174	725	93
175	987	998
176	827	937
177	253	53
178	342	592
179	933	328
180	833	437
181	705	344
182	35	318
183	839	857
184	7	132
185	462	46
186	511	649
187	72	981
188	660	595
189	306	313
190	806	978
191	954	238
192	679	664
193	223	692
194	783	211
195	258	807
196	29	943
197	901	617
198	634	276
199	711	6
200	253	301
201	229	917
202	379	611
203	494	796
204	974	375
205	804	306
206	366	672
207	739	275
208	390	64
209	421	896
210	773	430
211	33	185
212	780	36
213	583	683
214	102	872
215	917	407
216	999	222
217	991	56
218	687	500
219	381	463
220	982	321
221	52	296
222	188	834
223	373	15
224	240	295
225	379	73
226	94	905
227	291	368
228	365	875
229	281	949
230	222	763
231	487	965
232	525	52
233	276	873
234	217	975
235	767	889
236	966	590
237	584	689
238	52	118
239	888	366
240	513	513
241	626	630
242	528	291
243	61	262
244	67	613
245	528	819
246	776	606
247	453	584
248	113	947
249	619	771
250	751	689
251	680	978
252	207	338
253	930	890
254	740	183
255	313	231
256	487	874
257	695	972
258	857	247
259	376	774
260	168	409
261	855	702
262	543	56
263	846	172
264	43	62
265	548	157
266	68	300
267	153	638
268	987	721
269	619	306
270	31	683
271	681	520
272	445	533
273	117	505
274	860	428
275	265	809
276	947	417
277	791	3
278	305	771
279	697	637
280	599	555
281	595	439
282	952	464
283	217	775
284	585	895
285	185	344
286	710	275
287	22	136
288	668	648
289	423	637
290	318	490
291	763	274
292	686	796
293	870	128
294	845	405
295	37	883
296	59	581
297	292	22
298	182	838
299	905	295
300	285	15
301	159	409
302	556	616
303	370	988
304	436	374
305	143	772
306	15	88
307	897	75
308	667	699
309	621	485
310	942	616
311	900	816
312	707	297
313	170	312
314	541	76
315	244	104
316	367	241
317	71	908
318	349	361
319	754	980
320	32	869
321	812	318
322	731	882
323	701	119
324	170	285
325	577	478
326	377	59
327	312	343
328	823	859
329	760	716
330	809	837
331	269	109
332	112	726
333	454	247
334	873	167
335	205	18
336	738	287
DEMAND_SECTION
1	0
2	48
3	63
4	27
5	66
6	86
7	14
8	26
9	47
10	66
11	85
12	22
13	30
14	89
15	51
16	11
17	82
18	92
19	85
20	51
21	90
22	6
23	68
24	73
25	94
26	7
27	12
28	70
29	97
30	41
31	30
32	8
33	11
34	25
35	10
36	75
37	17
38	36
39	6
40	54
41	12
42	30
43	94
44	30
45	27
46	41
47	25
48	41
49	72
50	39
51	32
52	35
53	68
54	68
55	9
56	90
57	56
58	95
59	41
60	39
61	18
62	8
63	16
64	37
65	82
66	26
67	14
68	66
69	33
70	29
71	37
72	56
73	93
74	2
75	54
76	48
77	65
78	6
79	80
80	94
81	80
82	93
83	68
84	20
85	57
86	45
87	7
88	89
89	67
90	72
91	47
92	93
93	35
94	19
95	51
96	100
97	88
98	31
99	92
100	83
101	7
102	22
103	90
104	77
105	89
106	40
107	79
108	87
109	73
110	59
111	67
112	12
113	94
114	18
115	29
116	44
117	57
118	55
119	38
120	1
121	14
122	56
123	100
124	14
125	69
126	55
127	55
128	50
129	98
130	88
131	99
132	67
133	48
134	81
135	78
136	41
137	90
138	81
139	23
140	43
141	95
142	13
143	77
144	96
145	80
146	95
147	37
148	61
149	61
150	45
151	99
152	48
153	39
154	67
155	6
156	87
157	13
158	68
159	94
160	73
161	94
162	86
163	36
164	10
165	55
166	28
167	89
168	83
169	87
170	47
171	61
172	82
173	2
174	2
175	74
176	52
177	67
178	39
179	39
180	25
181	3
182	74
183	54
184	86
185	67
186	74
187	2
188	71
189	87
190	92
191	21
192	92
193	1
194	13
195	41
196	14
197	85
198	34
199	30
200	86
201	19
202	20
203	26
204	4
205	15
206	47
207	13
208	61
209	7
210	48
211	69
212	32
213	79
214	30
215	15
216	4
217	33
218	83
219	76
220	32
221	100
222	12
223	71
224	60
225	61
226	17
227	63
228	27
229	46
230	31
231	31
232	12
233	37
234	29
235	56
236	52
237	58
238	96
239	22
240	69
241	98
242	22
243	86
244	44
245	73
246	65
247	17
248	27
249	65
250	86
251	86
252	73
253	52
254	3
255	68
256	31
257	70
258	14
259	5
260	53
261	60
262	19
263	30
264	80
265	45
266	98
267	7
268	90
269	7
270	16
271	90
272	46
273	48
274	28
275	39
276	23
277	8
278	38
279	53
280	62
281	41
282	36
283	35
284	80
285	89
286	30
287	79
288	55
289	3
290	90
291	28
292	52
293	11
294	35
295	16
296	33
297	67
298	17
299	7
300	76
301	83
302	99
303	13
304	56
305	35
306	85
307	4
308	95
309	1
310	99
311	67
312	33
313	56
314	4
315	57
316	92
317	20
318	91
319	76
320	30
321	36
322	69
323	12
324	54
325	15
326	95
327	75
328	65
329	54
330	70
331	56
332	14
333	66
334	15
335	68
336	50
CAPACITY_SECTION
1	138
2	138
3	138
4	138
5	138
6	138
7	138
8	138
9	138
10	138
11	138
12	138
13	138
14	138
15	138
16	138
17	138
18	138
19	138
20	138
21	138
22	138
23	138
24	138
25	138
26	138
27	138
28	138
29	138
30	138
31	138
32	138
33	138
34	138
35	138
36	138
37	138
38	138
39	138
40	138
41	138
42	138
43	138
44	138
45	138
46	138
47	138
48	138
49	138
50	138
51	138
52	138
53	138
54	138
55	138
56	138
57	138
58	138
59	138
60	138
61	138
62	138
63	138
64	138
65	138
66	138
67	138
68	138
69	138
70	138
71	138
72	138
73	138
74	138
75	138
76	138
77	138
78	138
79	138
80	138
81	138
82	138
83	138
84	138
85	138
86	138
87	138
88	138
89	138
90	138
91	138
92	138
93	138
94	138
95	138
96	138
97	138
98	138
99	138
100	138
101	138
102	138
103	138
104	138
105	138
106	138
107	138
108	138
109	138
110	138
111	138
112	138
113	138
114	138
115	138
116	138
117	138
118	138
119	138
120	138
121	138
122	138
123	138
124	138
125	138
126	138
127	138
128	138
129	138
130	138
131	138
132	138
133	138
134	138
135	138
136	138
137	138
138	138
139	138
140	138
141	138
142	138
143	138
144	138
145	138
146	138
147	138
148	138
149	138
150	138
151	138
152	138
153	138
154	138
155	138
156	138
157	138
158	138
159	138
160	138
161	138
162	138
163	138
164	138
165	138
166	138
167	138
168	138
169	138
170	138
171	138
172	138
173	138
174	138
175	138
176	138
177	138
178	138
179	138
180	138
181	138
182	138
183	138
184	138
185	138
186	138
187	138
188	138
189	138
190	138
191	138
192	138
193	138
194	138
195	138
196	138
197	138
198	138
199	138
200	138
201	138
202	138
203	138
204	138
205	138
206	138
207	138
208	138
209	138
210	138
211	138
212	138
213	138
214	138
215	138
216	138
217	138
218	138
219	138
220	138
221	138
222	138
223	138
224	138
225	138
226	138
227	138
228	138
229	138
230	138
231	138
232	138
233	138
234	138
235	138
236	138
237	138
238	138
239	138
240	138
241	138
242	138
243	138
244	138
245	138
246	138
247	138
248	138
249	138
250	138
251	138
252	138
253	138
254	138
255	138
256	138
257	138
258	138
259	138
260	138
261	138
262	138
263	138
264	138
265	138
266	138
267	138
268	138
269	138
270	138
271	138
272	138
273	138
274	138
275	138
276	138
277	138
278	138
279	138
280	138
281	138
282	138
283	138
284	138
285	138
286	138
287	138
288	138
289	138
290	138
291	138
292	138
293	138
294	138
295	138
296	138
297	138
298	138
299	138
300	138
301	138
302	138
303	138
304	138
305	138
306	138
307	138
308	138
309	138
310	138
311	138
312	138
313	138
314	138
315	138
316	138
317	138
318	138
319	138
320	138
321	138
322	138
323	138
324	138
325	138
326	138
327	138
328	138
329	138
330	138
331	138
332	138
333	138
334	138
335	138
336	195
337	195
338	195
339	195
340	195
341	195
342	195
343	195
344	195
345	195
346	195
347	195
348	195
349	195
350	195
351	195
352	195
353	195
354	195
355	195
356	195
357	195
358	195
359	195
360	195
361	195
362	195
363	195
364	195
365	195
366	195
367	195
368	195
369	195
370	195
371	195
372	195
373	195
374	195
375	195
376	195
377	195
378	195
379	195
380	195
381	195
382	195
383	195
384	195
385	195
386	195
387	195
388	195
389	195
390	195
391	195
392	195
393	195
394	195
395	195
396	195
397	195
398	195
399	195
400	195
401	195
402	195
403	195
404	195
405	195
406	195
407	195
408	195
409	195
410	195
411	195
412	195
413	195
414	195
415	195
416	195
417	195
418	195
419	195
420	195
421	195
422	195
423	195
424	195
425	195
426	195
427	195
428	195
429	195
430	195
431	195
432	195
433	195
434	195
435	195
436	195
437	195
438	195
439	195
440	195
441	195
442	195
443	195
444	195
445	195
446	195
447	195
448	195
449	195
450	195
451	195
452	195
453	195
454	195
455	195
456	195
457	195
458	195
459	195
460	195
461	195
462	195
463	195
464	195
465	195
466	195
467	195
468	195
469	195
470	195
471	195
472	195
473	195
474	195
475	195
476	195
477	195
478	195
479	195
480	195
481	195
482	195
483	195
484	195
485	195
486	195
487	195
488	195
489	195
490	195
491	195
492	195
493	195
494	195
495	195
496	195
497	195
498	195
499	195
500	195
501	195
502	195
503	195
504	195
505	195
506	195
507	195
508	195
509	195
510	195
511	195
512	195
513	195
514	195
515	195
516	195
517	195
518	195
519	195
520	195
521	195
522	195
523	195
524	195
525	195
526	195
527	195
528	195
529	195
530	195
531	195
532	195
533	195
534	195
535	195
536	195
537	195
538	195
539	195
540	195
541	195
542	195
543	195
544	195
545	195
546	195
547	195
548	195
549	195
550	195
551	195
552	195
553	195
554	195
555	195
556	195
557	195
558	195
559	195
560	195
561	195
562	195
563	195
564	195
565	195
566	195
567	195
568	195
569	195
570	195
571	195
572	195
573	195
574	195
575	195
576	195
577	195
578	195
579	195
580	195
581	195
582	195
583	195
584	195
585	195
586	195
587	195
588	195
589	195
590	195
591	195
592	195
593	195
594	195
595	195
596	195
597	195
598	195
599	195
600	195
601	195
602	195
603	195
604	195
605	195
606	195
607	195
608	195
609	195
610	195
611	195
612	195
613	195
614	195
615	195
616	195
617	195
618	195
619	195
620	195
621	195
622	195
623	195
624	195
625	195
626	195
627	195
628	195
629	195
630	195
631	195
632	195
633	195
634	195
635	195
636	195
637	195
638	195
639	195
640	195
641	195
642	195
643	195
644	195
645	195
646	195
647	195
648	195
649	195
650	195
651	195
652	195
653	195
654	195
655	195
656	195
657	195
658	195
659	195
660	195
661	195
662	195
663	195
664	195
665	195
666	195
667	195
668	195
669	195
670	195
671	276
672	276
673	276
674	276
675	276
676	276
677	276
678	276
679	276
680	276
681	276
682	276
683	276
684	276
685	276
686	276
687	276
688	276
689	276
690	276
691	276
692	276
693	276
694	276
695	276
696	276
697	276
698	276
699	276
700	276
701	276
702	276
703	276
704	276
705	276
706	276
707	276
708	276
709	276
710	276
711	276
712	276
713	276
714	276
715	276
716	276
717	276
718	276
719	276
720	276
721	276
722	276
723	276
724	276
725	276
726	276
727	276
728	276
729	276
730	276
731	276
732	276
733	276
734	276
735	276
736	276
737	276
738	276
739	276
740	276
741	276
742	276
743	276
744	276
745	276
746	276
747	276
748	276
749	276
750	276
751	276
752	276
753	276
754	276
755	276
756	276
757	276
758	276
759	276
760	276
761	276
762	276
763	276
764	276
765	276
766	276
767	276
768	276
769	276
770	276
771	276
772	276
773	276
774	276
775	276
776	276
777	276
778	276
779	276
780	276
781	276
782	276
783	276
784	276
785	276
786	276
787	276
788	276
789	276
790	276
791	276
792	276
793	276
794	276
795	276
796	276
797	276
798	276
799	276
800	276
801	276
802	276
803	276
804	276
805	276
806	276
807	276
808	276
809	276
810	276
811	276
812	276
813	276
814	276
815	276
816	276
817	276
818	276
819	276
820	276
821	276
822	276
823	276
824	276
825	276
826	276
827	276
828	276
829	276
830	276
831	276
832	276
833	276
834	276
835	276
836	276
837	276
838	276
839	276
840	276
841	276
842	276
843	276
844	276
845	276
846	276
847	276
848	276
849	276
850	276
851	276
852	276
853	276
854	276
855	276
856	276
857	276
858	276
859	276
860	276
861	276
862	276
863	276
864	276
865	276
866	276
867	276
868	276
869	276
870	276
871	276
872	276
873	276
874	276
875	276
876	276
877	276
878	276
879	276
880	276
881	276
882	276
883	276
884	276
885	276
886	276
887	276
888	276
889	276
890	276
891	276
892	276
893	276
894	276
895	276
896	276
897	276
898	276
899	276
900	276
901	276
902	276
903	276
904	276
905	276
906	276
907	276
908	276
909	276
910	276
911	276
912	276
913	276
914	276
915	276
916	276
917	276
918	276
919	276
920	276
921	276
922	276
923	276
924	276
925	276
926	276
927	276
928	276
929	276
930	276
931	276
932	276
933	276
934	276
935	276
936	276
937	276
938	276
939	276
940	276
941	276
942	276
943	276
944	276
945	276
946	276
947	276
948	276
949	276
950	276
951	276
952	276
953	276
954	276
955	276
956	276
957	276
958	276
959	276
960	276
961	276
962	276
963	276
964	276
965	276
966	276
967	276
968	276
969	276
970	276
971	276
972	276
973	276
974	276
975	276
976	276
977	276
978	276
979	276
980	276
981	276
982	276
983	276
984	276
985	276
986	276
987	276
988	276
989	276
990	276
991	276
992	276
993	276
994	276
995	276
996	276
997	276
998	276
999	276
1000	276
1001	276
1002	276
1003	276
1004	276
1005	276
VEHICLES_FIXED_COST_SECTION
1	74000
2	74000
3	74000
4	74000
5	74000
6	74000
7	74000
8	74000
9	74000
10	74000
11	74000
12	74000
13	74000
14	74000
15	74000
16	74000
17	74000
18	74000
19	74000
20	74000
21	74000
22	74000
23	74000
24	74000
25	74000
26	74000
27	74000
28	74000
29	74000
30	74000
31	74000
32	74000
33	74000
34	74000
35	74000
36	74000
37	74000
38	74000
39	74000
40	74000
41	74000
42	74000
43	74000
44	74000
45	74000
46	74000
47	74000
48	74000
49	74000
50	74000
51	74000
52	74000
53	74000
54	74000
55	74000
56	74000
57	74000
58	74000
59	74000
60	74000
61	74000
62	74000
63	74000
64	74000
65	74000
66	74000
67	74000
68	74000
69	74000
70	74000
71	74000
72	74000
73	74000
74	74000
75	74000
76	74000
77	74000
78	74000
79	74000
80	74000
81	74000
82	74000
83	74000
84	74000
85	74000
86	74000
87	74000
88	74000
89	74000
90	74000
91	74000
92	74000
93	74000
94	74000
95	74000
96	74000
97	74000
98	74000
99	74000
100	74000
101	74000
102	74000
103	74000
104	74000
105	74000
106	74000
107	74000
108	74000
109	74000
110	74000
111	74000
112	74000
113	74000
114	74000
115	74000
116	74000
117	74000
118	74000
119	74000
120	74000
121	74000
122	74000
123	74000
124	74000
125	74000
126	74000
127	74000
128	74000
129	74000
130	74000
131	74000
132	74000
133	74000
134	74000
135	74000
136	74000
137	74000
138	74000
139	74000
140	74000
141	74000
142	74000
143	74000
144	74000
145	74000
146	74000
147	74000
148	74000
149	74000
150	74000
151	74000
152	74000
153	74000
154	74000
155	74000
156	74000
157	74000
158	74000
159	74000
160	74000
161	74000
162	74000
163	74000
164	74000
165	74000
166	74000
167	74000
168	74000
169	74000
170	74000
171	74000
172	74000
173	74000
174	74000
175	74000
176	74000
177	74000
178	74000
179	74000
180	74000
181	74000
182	74000
183	74000
184	74000
185	74000
186	74000
187	74000
188	74000
189	74000
190	74000
191	74000
192	74000
193	74000
194	74000
195	74000
196	74000
197	74000
198	74000
199	74000
200	74000
201	74000
202	74000
203	74000
204	74000
205	74000
206	74000
207	74000
208	74000
209	74000
210	74000
211	74000
212	74000
213	74000
214	74000
215	74000
216	74000
217	74000
218	74000
219	74000
220	74000
221	74000
222	74000
223	74000
224	74000
225	74000
226	74000
227	74000
228	74000
229	74000
230	74000
231	74000
232	74000
233	74000
234	74000
235	74000
236	74000
237	74000
238	74000
239	74000
240	74000
241	74000
242	74000
243	74000
244	74000
245	74000
246	74000
247	74000
248	74000
249	74000
250	74000
251	74000
252	74000
253	74000
254	74000
255	74000
256	74000
257	74000
258	74000
259	74000
260	74000
261	74000
262	74000
263	74000
264	74000
265	74000
266	74000
267	74000
268	74000
269	74000
270	74000
271	74000
272	74000
273	74000
274	74000
275	74000
276	74000
277	74000
278	74000
279	74000
280	74000
281	74000
282	74000
283	74000
284	74000
285	74000
286	74000
287	74000
288	74000
289	74000
290	74000
291	74000
292	74000
293	74000
294	74000
295	74000
296	74000
297	74000
298	74000
299	74000
300	74000
301	74000
302	74000
303	74000
304	74000
305	74000
306	74000
307	74000
308	74000
309	74000
310	74000
311	74000
312	74000
313	74000
314	74000
315	74000
316	74000
317	74000
318	74000
319	74000
320	74000
321	74000
322	74000
323	74000
324	74000
325	74000
326	74000
327	74000
328	74000
329	74000
330	74000
331	74000
332	74000
333	74000
334	74000
335	74000
336	113400
337	113400
338	113400
339	113400
340	113400
341	113400
342	113400
343	113400
344	113400
345	113400
346	113400
347	113400
348	113400
349	113400
350	113400
351	113400
352	113400
353	113400
354	113400
355	113400
356	113400
357	113400
358	113400
359	113400
360	113400
361	113400
362	113400
363	113400
364	113400
365	113400
366	113400
367	113400
368	113400
369	113400
370	113400
371	113400
372	113400
373	113400
374	113400
375	113400
376	113400
377	113400
378	113400
379	113400
380	113400
381	113400
382	113400
383	113400
384	113400
385	113400
386	113400
387	113400
388	113400
389	113400
390	113400
391	113400
392	113400
393	113400
394	113400
395	113400
396	113400
397	113400
398	113400
399	113400
400	113400
401	113400
402	113400
403	113400
404	113400
405	113400
406	113400
407	113400
408	113400
409	113400
410	113400
411	113400
412	113400
413	113400
414	113400
415	113400
416	113400
417	113400
418	113400
419	113400
420	113400
421	113400
422	113400
423	113400
424	113400
425	113400
426	113400
427	113400
428	113400
429	113400
430	113400
431	113400
432	113400
433	113400
434	113400
435	113400
436	113400
437	113400
438	113400
439	113400
440	113400
441	113400
442	113400
443	113400
444	113400
445	113400
446	113400
447	113400
448	113400
449	113400
450	113400
451	113400
452	113400
453	113400
454	113400
455	113400
456	113400
457	113400
458	113400
459	113400
460	113400
461	113400
462	113400
463	113400
464	113400
465	113400
466	113400
467	113400
468	113400
469	113400
470	113400
471	113400
472	113400
473	113400
474	113400
475	113400
476	113400
477	113400
478	113400
479	113400
480	113400
481	113400
482	113400
483	113400
484	113400
485	113400
486	113400
487	113400
488	113400
489	113400
490	113400
491	113400
492	113400
493	113400
494	113400
495	113400
496	113400
497	113400
498	113400
499	113400
500	113400
501	113400
502	113400
503	113400
504	113400
505	113400
506	113400
507	113400
508	113400
509	113400
510	113400
511	113400
512	113400
513	113400
514	113400
515	113400
516	113400
517	113400
518	113400
519	113400
520	113400
521	113400
522	113400
523	113400
524	113400
525	113400
526	113400
527	113400
528	113400
529	113400
530	113400
531	113400
532	113400
533	113400
534	113400
535	113400
536	113400
537	113400
538	113400
539	113400
540	113400
541	113400
542	113400
543	113400
544	113400
545	113400
546	113400
547	113400
548	113400
549	113400
550	113400
551	113400
552	113400
553	113400
554	113400
555	113400
556	113400
557	113400
558	113400
559	113400
560	113400
561	113400
562	113400
563	113400
564	113400
565	113400
566	113400
567	113400
568	113400
569	113400
570	113400
571	113400
572	113400
573	113400
574	113400
575	113400
576	113400
577	113400
578	113400
579	113400
580	113400
581	113400
582	113400
583	113400
584	113400
585	113400
586	113400
587	113400
588	113400
589	113400
590	113400
591	113400
592	113400
593	113400
594	113400
595	113400
596	113400
597	113400
598	113400
599	113400
600	113400
601	113400
602	113400
603	113400
604	113400
605	113400
606	113400
607	113400
608	113400
609	113400
610	113400
611	113400
612	113400
613	113400
614	113400
615	113400
616	113400
617	113400
618	113400
619	113400
620	113400
621	113400
622	113400
623	113400
624	113400
625	113400
626	113400
627	113400
628	113400
629	113400
630	113400
631	113400
632	113400
633	113400
634	113400
635	113400
636	113400
637	113400
638	113400
639	113400
640	113400
641	113400
642	113400
643	113400
644	113400
645	113400
646	113400
647	113400
648	113400
649	113400
650	113400
651	113400
652	113400
653	113400
654	113400
655	113400
656	113400
657	113400
658	113400
659	113400
660	113400
661	113400
662	113400
663	113400
664	113400
665	113400
666	113400
667	113400
668	113400
669	113400
670	113400
671	172700
672	172700
673	172700
674	172700
675	172700
676	172700
677	172700
678	172700
679	172700
680	172700
681	172700
682	172700
683	172700
684	172700
685	172700
686	172700
687	172700
688	172700
689	172700
690	172700
691	172700
692	172700
693	172700
694	172700
695	172700
696	172700
697	172700
698	172700
699	172700
700	172700
701	172700
702	172700
703	172700
704	172700
705	172700
706	172700
707	172700
708	172700
709	172700
710	172700
711	172700
712	172700
713	172700
714	172700
715	172700
716	172700
717	172700
718	172700
719	172700
720	172700
721	172700
722	172700
723	172700
724	172700
725	172700
726	172700
727	172700
728	172700
729	172700
730	172700
731	172700
732	172700
733	172700
734	172700
735	172700
736	172700
737	172700
738	172700
739	172700
740	172700
741	172700
742	172700
743	172700
744	172700
745	172700
746	172700
747	172700
748	172700
749	172700
750	172700
751	172700
752	172700
753	172700
754	172700
755	172700
756	172700
757	172700
758	172700
759	172700
760	172700
761	172700
762	172700
763	172700
764	172700
765	172700
766	172700
767	172700
768	172700
769	172700
770	172700
771	172700
772	172700
773	172700
774	172700
775	172700
776	172700
777	172700
778	172700
779	172700
780	172700
781	172700
782	172700
783	172700
784	172700
785	172700
786	172700
787	172700
788	172700
789	172700
790	172700
791	172700
792	172700
793	172700
794	172700
795	172700
796	172700
797	172700
798	172700
799	172700
800	172700
801	172700
802	172700
803	172700
804	172700
805	172700
806	172700
807	172700
808	172700
809	172700
810	172700
811	172700
812	172700
813	172700
814	172700
815	172700
816	172700
817	172700
818	172700
819	172700
820	172700
821	172700
822	172700
823	172700
824	172700
825	172700
826	172700
827	172700
828	172700
829	172700
830	172700
831	172700
832	172700
833	172700
834	172700
835	172700
836	172700
837	172700
838	172700
839	172700
840	172700
841	172700
842	172700
843	172700
844	172700
845	172700
846	172700
847	172700
848	172700
849	172700
850	172700
851	172700
852	172700
853	172700
854	172700
855	172700
856	172700
857	172700
858	172700
859	172700
860	172700
861	172700
862	172700
863	172700
864	172700
865	172700
866	172700
867	172700
868	172700
869	172700
870	172700
871	172700
872	172700
873	172700
874	172700
875	172700
876	172700
877	172700
878	172700
879	172700
880	172700
881	172700
882	172700
883	172700
884	172700
885	172700
886	172700
887	172700
888	172700
889	172700
890	172700
891	172700
892	172700
893	172700
894	172700
895	172700
896	172700
897	172700
898	172700
899	172700
900	172700
901	172700
902	172700
903	172700
904	172700
905	172700
906	172700
907	172700
908	172700
909	172700
910	172700
911	172700
912	172700
913	172700
914	172700
915	172700
916	172700
917	172700
918	172700
919	172700
920	172700
921	172700
922	172700
923	172700
924	172700
925	172700
926	172700
927	172700
928	172700
929	172700
930	172700
931	172700
932	172700
933	172700
934	172700
935	172700
936	172700
937	172700
938	172700
939	172700
940	172700
941	172700
942	172700
943	172700
944	172700
945	172700
946	172700
947	172700
948	172700
949	172700
950	172700
951	172700
952	172700
953	172700
954	172700
955	172700
956	172700
957	172700
958	172700
959	172700
960	172700
961	172700
962	172700
963	172700
964	172700
965	172700
966	172700
967	172700
968	172700
969	172700
970	172700
971	172700
972	172700
973	172700
974	172700
975	172700
976	172700
977	172700
978	172700
979	172700
980	172700
981	172700
982	172700
983	172700
984	172700
985	172700
986	172700
987	172700
988	172700
989	172700
990	172700
991	172700
992	172700
993	172700
994	172700
995	172700
996	172700
997	172700
998	172700
999	172700
1000	172700
1001	172700
1002	172700
1003	172700
1004	172700
1005	172700
VEHICLES_UNIT_DISTANCE_COST_SECTION
1	100
2	100
3	100
4	100
5	100
6	100
7	100
8	100
9	100
10	100
11	100
12	100
13	100
14	100
15	100
16	100
17	100
18	100
19	100
20	100
21	100
22	100
23	100
24	100
25	100
26	100
27	100
28	100
29	100
30	100
31	100
32	100
33	100
34	100
35	100
36	100
37	100
38	100
39	100
40	100
41	100
42	100
43	100
44	100
45	100
46	100
47	100
48	100
49	100
50	100
51	100
52	100
53	100
54	100
55	100
56	100
57	100
58	100
59	100
60	100
61	100
62	100
63	100
64	100
65	100
66	100
67	100
68	100
69	100
70	100
71	100
72	100
73	100
74	100
75	100
76	100
77	100
78	100
79	100
80	100
81	100
82	100
83	100
84	100
85	100
86	100
87	100
88	100
89	100
90	100
91	100
92	100
93	100
94	100
95	100
96	100
97	100
98	100
99	100
100	100
101	100
102	100
103	100
104	100
105	100
106	100
107	100
108	100
109	100
110	100
111	100
112	100
113	100
114	100
115	100
116	100
117	100
118	100
119	100
120	100
121	100
122	100
123	100
124	100
125	100
126	100
127	100
128	100
129	100
130	100
131	100
132	100
133	100
134	100
135	100
136	100
137	100
138	100
139	100
140	100
141	100
142	100
143	100
144	100
145	100
146	100
147	100
148	100
149	100
150	100
151	100
152	100
153	100
154	100
155	100
156	100
157	100
158	100
159	100
160	100
161	100
162	100
163	100
164	100
165	100
166	100
167	100
168	100
169	100
170	100
171	100
172	100
173	100
174	100
175	100
176	100
177	100
178	100
179	100
180	100
181	100
182	100
183	100
184	100
185	100
186	100
187	100
188	100
189	100
190	100
191	100
192	100
193	100
194	100
195	100
196	100
197	100
198	100
199	100
200	100
201	100
202	100
203	100
204	100
205	100
206	100
207	100
208	100
209	100
210	100
211	100
212	100
213	100
214	100
215	100
216	100
217	100
218	100
219	100
220	100
221	100
222	100
223	100
224	100
225	100
226	100
227	100
228	100
229	100
230	100
231	100
232	100
233	100
234	100
235	100
236	100
237	100
238	100
239	100
240	100
241	100
242	100
243	100
244	100
245	100
246	100
247	100
248	100
249	100
250	100
251	100
252	100
253	100
254	100
255	100
256	100
257	100
258	100
259	100
260	100
261	100
262	100
263	100
264	100
265	100
266	100
267	100
268	100
269	100
270	100
271	100
272	100
273	100
274	100
275	100
276	100
277	100
278	100
279	100
280	100
281	100
282	100
283	100
284	100
285	100
286	100
287	100
288	100
289	100
290	100
291	100
292	100
293	100
294	100
295	100
296	100
297	100
298	100
299	100
300	100
301	100
302	100
303	100
304	100
305	100
306	100
307	100
308	100
309	100
310	100
311	100
312	100
313	100
314	100
315	100
316	100
317	100
318	100
319	100
320	100
321	100
322	100
323	100
324	100
325	100
326	100
327	100
328	100
329	100
330	100
331	100
332	100
333	100
334	100
335	100
336	100
337	100
338	100
339	100
340	100
341	100
342	100
343	100
344	100
345	100
346	100
347	100
348	100
349	100
350	100
351	100
352	100
353	100
354	100
355	100
356	100
357	100
358	100
359	100
360	100
361	100
362	100
363	100
364	100
365	100
366	100
367	100
368	100
369	100
370	100
371	100
372	100
373	100
374	100
375	100
376	100
377	100
378	100
379	100
380	100
381	100
382	100
383	100
384	100
385	100
386	100
387	100
388	100
389	100
390	100
391	100
392	100
393	100
394	100
395	100
396	100
397	100
398	100
399	100
400	100
401	100
402	100
403	100
404	100
405	100
406	100
407	100
408	100
409	100
410	100
411	100
412	100
413	100
414	100
415	100
416	100
417	100
418	100
419	100
420	100
421	100
422	100
423	100
424	100
425	100
426	100
427	100
428	100
429	100
430	100
431	100
432	100
433	100
434	100
435	100
436	100
437	100
438	100
439	100
440	100
441	100
442	100
443	100
444	100
445	100
446	100
447	100
448	100
449	100
450	100
451	100
452	100
453	100
454	100
455	100
456	100
457	100
458	100
459	100
460	100
461	100
462	100
463	100
464	100
465	100
466	100
467	100
468	100
469	100
470	100
471	100
472	100
473	100
474	100
475	100
476	100
477	100
478	100
479	100
480	100
481	100
482	100
483	100
484	100
485	100
486	100
487	100
488	100
489	100
490	100
491	100
492	100
493	100
494	100
495	100
496	100
497	100
498	100
499	100
500	100
501	100
502	100
503	100
504	100
505	100
506	100
507	100
508	100
509	100
510	100
511	100
512	100
513	100
514	100
515	100
516	100
517	100
518	100
519	100
520	100
521	100
522	100
523	100
524	100
525	100
526	100
527	100
528	100
529	100
530	100
531	100
532	100
533	100
534	100
535	100
536	100
537	100
538	100
539	100
540	100
541	100
542	100
543	100
544	100
545	100
546	100
547	100
548	100
549	100
550	100
551	100
552	100
553	100
554	100
555	100
556	100
557	100
558	100
559	100
560	100
561	100
562	100
563	100
564	100
565	100
566	100
567	100
568	100
569	100
570	100
571	100
572	100
573	100
574	100
575	100
576	100
577	100
578	100
579	100
580	100
581	100
582	100
583	100
584	100
585	100
586	100
587	100
588	100
589	100
590	100
591	100
592	100
593	100
594	100
595	100
596	100
597	100
598	100
599	100
600	100
601	100
602	100
603	100
604	100
605	100
606	100
607	100
608	100
609	100
610	100
611	100
612	100
613	100
614	100
615	100
616	100
617	100
618	100
619	100
620	100
621	100
622	100
623	100
624	100
625	100
626	100
627	100
628	100
629	100
630	100
631	100
632	100
633	100
634	100
635	100
636	100
637	100
638	100
639	100
640	100
641	100
642	100
643	100
644	100
645	100
646	100
647	100
648	100
649	100
650	100
651	100
652	100
653	100
654	100
655	100
656	100
657	100
658	100
659	100
660	100
661	100
662	100
663	100
664	100
665	100
666	100
667	100
668	100
669	100
670	100
671	100
672	100
673	100
674	100
675	100
676	100
677	100
678	100
679	100
680	100
681	100
682	100
683	100
684	100
685	100
686	100
687	100
688	100
689	100
690	100
691	100
692	100
693	100
694	100
695	100
696	100
697	100
698	100
699	100
700	100
701	100
702	100
703	100
704	100
705	100
706	100
707	100
708	100
709	100
710	100
711	100
712	100
713	100
714	100
715	100
716	100
717	100
718	100
719	100
720	100
721	100
722	100
723	100
724	100
725	100
726	100
727	100
728	100
729	100
730	100
731	100
732	100
733	100
734	100
735	100
736	100
737	100
738	100
739	100
740	100
741	100
742	100
743	100
744	100
745	100
746	100
747	100
748	100
749	100
750	100
751	100
752	100
753	100
754	100
755	100
756	100
757	100
758	100
759	100
760	100
761	100
762	100
763	100
764	100
765	100
766	100
767	100
768	100
769	100
770	100
771	100
772	100
773	100
774	100
775	100
776	100
777	100
778	100
779	100
780	100
781	100
782	100
783	100
784	100
785	100
786	100
787	100
788	100
789	100
790	100
791	100
792	100
793	100
794	100
795	100
796	100
797	100
798	100
799	100
800	100
801	100
802	100
803	100
804	100
805	100
806	100
807	100
808	100
809	100
810	100
811	100
812	100
813	100
814	100
815	100
816	100
817	100
818	100
819	100
820	100
821	100
822	100
823	100
824	100
825	100
826	100
827	100
828	100
829	100
830	100
831	100
832	100
833	100
834	100
835	100
836	100
837	100
838	100
839	100
840	100
841	100
842	100
843	100
844	100
845	100
846	100
847	100
848	100
849	100
850	100
851	100
852	100
853	100
854	100
855	100
856	100
857	100
858	100
859	100
860	100
861	100
862	100
863	100
864	100
865	100
866	100
867	100
868	100
869	100
870	100
871	100
872	100
873	100
874	100
875	100
876	100
877	100
878	100
879	100
880	100
881	100
882	100
883	100
884	100
885	100
886	100
887	100
888	100
889	100
890	100
891	100
892	100
893	100
894	100
895	100
896	100
897	100
898	100
899	100
900	100
901	100
902	100
903	100
904	100
905	100
906	100
907	100
908	100
909	100
910	100
911	100
912	100
913	100
914	100
915	100
916	100
917	100
918	100
919	100
920	100
921	100
922	100
923	100
924	100
925	100
926	100
927	100
928	100
929	100
930	100
931	100
932	100
933	100
934	100
935	100
936	100
937	100
938	100
939	100
940	100
941	100
942	100
943	100
944	100
945	100
946	100
947	100
948	100
949	100
950	100
951	100
952	100
953	100
954	100
955	100
956	100
957	100
958	100
959	100
960	100
961	100
962	100
963	100
964	100
965	100
966	100
967	100
968	100
969	100
970	100
971	100
972	100
973	100
974	100
975	100
976	100
977	100
978	100
979	100
980	100
981	100
982	100
983	100
984	100
985	100
986	100
987	100
988	100
989	100
990	100
991	100
992	100
993	100
994	100
995	100
996	100
997	100
998	100
999	100
1000	100
1001	100
1002	100
1003	100
1004	100
1005	100
DEPOT_SECTION
1
EOF
